
Gurobi 11.0.3 (linux64) logging started Mon 18 Nov 2024 08:28:49 PM CST

Set parameter LogFile to value "/home/dlcole3/graph_abstraction/hierarchical_graphs/git_storage/CS1/HP_low_reserves/gurobi_logs/serial/logfile_ST8_5.log"

Gurobi 11.0.3 (linux64) logging started Mon 18 Nov 2024 08:30:27 PM CST

Set parameter LogFile to value "/home/dlcole3/graph_abstraction/hierarchical_graphs/git_storage/CS1/HP_low_reserves/gurobi_logs/serial/logfile_ST8_5.log"
Gurobi Optimizer version 11.0.3 build v11.0.3rc0 (linux64 - "Ubuntu 18.04.3 LTS")

CPU model: Intel(R) Xeon(R) CPU E5-2698 v4 @ 2.20GHz, instruction set [SSE2|AVX|AVX2]
Thread count: 40 physical cores, 80 logical processors, using up to 20 threads

Optimize a model with 29168 rows, 50688 columns and 136175 nonzeros
Model fingerprint: 0x0b6748fe
Variable types: 46944 continuous, 3744 integer (3744 binary)
Coefficient statistics:
  Matrix range     [6e-01, 2e+04]
  Objective range  [2e+00, 2e+04]
  Bounds range     [5e-02, 2e+05]
  RHS range        [5e-02, 7e+03]
Presolve removed 14180 rows and 38791 columns
Presolve time: 0.35s
Presolved: 14988 rows, 11897 columns, 63370 nonzeros
Variable types: 8929 continuous, 2968 integer (2968 binary)
Found heuristic solution: objective 196566.11228

Root relaxation: objective 8.053611e+04, 8132 iterations, 0.38 seconds (0.27 work units)

    Nodes    |    Current Node    |     Objective Bounds      |     Work
 Expl Unexpl |  Obj  Depth IntInf | Incumbent    BestBd   Gap | It/Node Time

     0     0 80536.1096    0   21 196566.112 80536.1096  59.0%     -    1s
H    0     0                    196557.31025 80536.1096  59.0%     -    1s
H    0     0                    84288.437604 80536.1096  4.45%     -    1s
H    0     0                    84288.437473 80549.2765  4.44%     -    1s
     0     0 80549.2765    0   21 84288.4375 80549.2765  4.44%     -    1s
     0     0 80549.2765    0   15 84288.4375 80549.2765  4.44%     -    2s
     0     0 80549.2765    0   15 84288.4375 80549.2765  4.44%     -    2s
     0     2 80549.2765    0   15 84288.4375 80549.2765  4.44%     -    3s
H   32    52                    82826.200863 80673.2318  2.60%  14.3    3s
H   33    52                    81683.507471 80673.2318  1.24%  13.9    3s
H   36    52                    81601.529839 80675.7391  1.13%  13.3    3s
H   46    52                    81487.967532 80675.7391  1.00%  12.0    3s
H  193   146                    81378.492085 80687.6697  0.85%   8.4    3s
H  338   185                    81241.874689 80692.8229  0.68%   7.9    4s
H  344   185                    81240.547922 80692.8229  0.67%   8.0    4s
H  345   185                    81219.175922 80692.8229  0.65%   8.0    4s
H  444   178                    81218.330145 80692.8229  0.65%   7.5    4s
H  447   202                    81210.018609 80692.8229  0.64%   7.5    4s
H  816   172                    81179.644138 80783.6851  0.49%   6.9    4s
H  992   173                    81174.272752 80829.7776  0.42%   6.8    4s
H 1118   183                    81173.884532 80829.7776  0.42%   6.9    4s
  1170   197 81043.4703   24   21 81173.8845 80829.7776  0.42%   6.9    5s
* 1205   197              26    81172.406225 80829.7776  0.42%   6.8    5s
H 1510   347                    81073.762957 80829.7776  0.30%   6.6    5s
H 1603   155                    81073.762946 80831.5159  0.30%   6.5    5s
H 1757   155                    81073.762895 80832.4786  0.30%   6.2    5s

Explored 1798 nodes (26979 simplex iterations) in 5.83 seconds (3.78 work units)
Thread count was 20 (of 80 available processors)

Solution count 10: 81073.8 81073.8 81172.4 ... 81488

Optimal solution found (tolerance 3.00e-03)
Best objective 8.107376290037e+04, best bound 8.083247861365e+04, gap 0.2976%

User-callback calls 5428, time in user-callback 0.00 sec
